9350
1027 86
1115 36
186 10
1133 11
1864 35
1183 91
1319 22
1057 71
478 43
1551 90
1755 35
541 65
1180 84
419 34
832 11
862 13
1046 28
1262 41
29 32
1254 44
631 88
1081 9
1401 8
1115 48
1057 86
1269 66
1571 55
12 71
896 72
1161 59
